56032
46, 36, 39, 16, 10, 22, 29, 21, 23, 53, 17, 48, 19, 41, 32, 44, 8, 38, 50, 24, 20, 35, 5, 37, 7, 40, 51, 13, 43, 3, 28, 6, 55, 49, 26, 54, 47, 34, 4, 30, 18, 12, 9, 14, 2, 11, 45, 42, 33, 1, 27, 31, 25, 52, 15
